NAME : rc205.2.9087854.tour
COMMENT : Length = 9087854
COMMENT : Found by LKH [Keld Helsgaun] Tue Nov  7 19:52:21 2017
TYPE : TOUR
DIMENSION : 29
TOUR_SECTION
1
28
9
11
7
8
13
20
26
10
21
23
29
25
18
16
3
2
17
14
12
6
27
15
4
22
24
5
19
-1
EOF
